m = 6; % number of couriers
n = 9; % number of packages

l = [16, 24, 21, 10, 19, 15]; % maximum carriable weight per courier
s = [12, 12, 12, 5, 4, 6, 7, 11, 4]; % weight of each package

D = % distance matrix 
	 [| 10, 4, 12, 10, 15, 8, 4, 4, 4, 15
	 | 4, 5, 15, 10, 6, 11, 6, 14, 15, 16
	 | 12, 15, 5, 11, 13, 14, 12, 5, 14, 4
	 | 10, 10, 11, 12, 9, 5, 10, 13, 15, 6
	 | 15, 6, 13, 9, 5, 11, 4, 11, 7, 13
	 | 8, 11, 14, 5, 11, 7, 9, 14, 14, 16
	 | 4, 6, 12, 10, 4, 9, 6, 11, 9, 14
	 | 4, 14, 5, 13, 11, 14, 11, 14, 4, 6
	 | 4, 15, 14, 15, 7, 14, 9, 4, 13, 10
	 | 16, 13, 10, 15, 11, 13, 7, 9, 7, 5
	 |];